








































































41 61 
45 42 
65 3 
74 12 
52 54 
34 47 
49 1 
32 20 
69 46 
62 24 
11 68 
43 25 
66 6 
76 14 
55 5 
48 40 
22 38 
60 30 
26 27 
51 13 
39 71 
72 
8 37 
53 
75 21 
23 28 
58 15 
70 63 
0 67 
17 16 
33 2 
31 10 
57 4 
18 73 
19 29 
7 
64 
59 50 
44 
35 
9 56 
36 
